************************************************************************
file with basedata            : md352_.bas
initial value random generator: 79579098
************************************************************************
projects                      :  1
jobs (incl. supersource/sink ):  22
horizon                       :  163
RESOURCES
  - renewable                 :  2   R
  - nonrenewable              :  2   N
  - doubly constrained        :  0   D
************************************************************************
PROJECT INFORMATION:
pronr.  #jobs rel.date duedate tardcost  MPM-Time
    1     20      0       22       19       22
************************************************************************
PRECEDENCE RELATIONS:
jobnr.    #modes  #successors   successors
   1        1          3           2   3   4
   2        3          3           7   8  13
   3        3          3           5   6   9
   4        3          3          10  18  21
   5        3          1          10
   6        3          3          12  13  19
   7        3          3           9  18  20
   8        3          1          11
   9        3          1          21
  10        3          3          14  15  19
  11        3          3          14  18  21
  12        3          2          14  15
  13        3          2          16  17
  14        3          1          16
  15        3          2          16  17
  16        3          1          20
  17        3          1          20
  18        3          1          19
  19        3          1          22
  20        3          1          22
  21        3          1          22
  22        1          0        
************************************************************************
REQUESTS/DURATIONS:
jobnr. mode duration  R 1  R 2  N 1  N 2
------------------------------------------------------------------------
  1      1     0       0    0    0    0
  2      1     3       8    5    0   10
         2     6       7    3    6    0
         3     9       3    1    0    4
  3      1     4       8    9    7    0
         2     4       9    9    0    7
         3     8       8    3    7    0
  4      1     6       3    7    0    6
         2     7       2    4    8    0
         3     8       2    3    0    4
  5      1     3      10    4    0    7
         2    10      10    1    0    5
         3    10      10    2    0    4
  6      1     9       5    5    4    0
         2    10       4    1    0    2
         3    10       2    4    4    0
  7      1     1      10    7    0    3
         2     2      10    6    0    3
         3     6       9    6    0    3
  8      1     2       5    6    0    5
         2     5       4    5    6    0
         3     6       3    3    0    4
  9      1     2       7    9    7    0
         2     6       7    7    0    7
         3     7       3    7    7    0
 10      1     6      10    6    8    0
         2     7       5    3    0    6
         3     9       3    2    4    0
 11      1     1       4    5    0    9
         2     6       3    4    0    7
         3     9       3    1    0    6
 12      1     1       6    7    3    0
         2     2       6    6    3    0
         3     3       4    3    0    4
 13      1     4       3    8    0    8
         2    10       2    5    0    6
         3    10       2    4    9    0
 14      1     6       7    7    0    6
         2     6       8   10    7    0
         3     9       7    3    0    6
 15      1     1       8    7    8    0
         2     6       8    6    0    6
         3     9       7    6    0    5
 16      1     1       4    3    0    8
         2     4       4    3    0    6
         3     7       4    2    0    6
 17      1     2       9    6    7    0
         2     9       7    5    0    6
         3    10       7    5    0    3
 18      1     7       3    7    8    0
         2     8       2    4    5    0
         3     8       1    5    6    0
 19      1     3       9    2    7    0
         2     9       8    2    0    9
         3    10       7    2    0    6
 20      1     1       9    7    9    0
         2     2       8    7    0    8
         3     6       6    5    0    8
 21      1     4       3    4    0    8
         2     6       3    3    0    6
         3     9       2    3    2    0
 22      1     0       0    0    0    0
************************************************************************
RESOURCEAVAILABILITIES:
  R 1  R 2  N 1  N 2
   30   31  106  125
************************************************************************
MAXIMAL LAGS:
from  to  type  delay
    1   22   ES      0
    1    2   ES      0
    2   22   ES      0
    1    3   ES      0
    3   22   ES      0
    1    4   ES      0
    4   22   ES      0
    1    5   ES      0
    5   22   ES      0
    1    6   ES      0
    6   22   ES      0
    1    7   ES      0
    7   22   ES      0
    1    8   ES      0
    8   22   ES      0
    1    9   ES      0
    9   22   ES      0
    1   10   ES      0
   10   22   ES      0
    1   11   ES      0
   11   22   ES      0
    1   12   ES      0
   12   22   ES      0
    1   13   ES      0
   13   22   ES      0
    1   14   ES      0
   14   22   ES      0
    1   15   ES      0
   15   22   ES      0
    1   16   ES      0
   16   22   ES      0
    1   17   ES      0
   17   22   ES      0
    1   18   ES      0
   18   22   ES      0
    1   19   ES      0
   19   22   ES      0
    1   20   ES      0
   20   22   ES      0
    1   21   ES      0
   21   22   ES      0
    1   22   ES      0
    2    7   SS    -12
    2    7   SE      0
    2    7   ES      9
    2    7   EE     10
    2    8   SS     -4
    2    8   SE     -3
    2    8   ES      8
    2    8   EE    -10
    2   13   SS     12
    2   13   SE     -9
    2   13   ES     -9
    2   13   EE      9
    3    5   SS     10
    3    5   SE      7
    3    5   ES      3
    3    5   EE     12
    3    6   SS     -6
    3    6   SE      5
    3    6   ES      5
    3    6   EE    -10
    3    9   SS      4
    3    9   SE     -8
    3    9   ES      2
    3    9   EE     -5
    4   10   SS    -12
    4   10   SE      9
    4   10   ES      1
    4   10   EE     -5
    4   18   SS     -3
    4   18   SE     -5
    4   18   ES     -2
    4   18   EE      9
    4   21   SS      6
    4   21   SE     -3
    4   21   ES      4
    4   21   EE      4
    5   10   SS     -7
    5   10   SE     11
    5   10   ES    -10
    5   10   EE      4
    6   12   SS      4
    6   12   SE     -4
    6   12   ES      6
    6   12   EE      1
    6   13   SS      5
    6   13   SE    -12
   13    6   SE      0
    6   13   ES      0
    6   13   EE      0
    6   19   SS     -4
    6   19   SE     12
    6   19   ES    -12
    6   19   EE     -1
    7    9   SS     -9
    7    9   SE     -9
    7    9   ES    -11
    7    9   EE     -7
    7   18   SS    -10
    7   18   SE     -7
    7   18   ES     -1
    7   18   EE     -3
    7   20   SS     -6
    7   20   SE      9
    7   20   ES     11
    7   20   EE     -4
    8   11   SS    -10
    8   11   SE     11
    8   11   ES     -7
    8   11   EE     -5
    9   21   SS    -12
    9   21   SE     -9
    9   21   ES     10
    9   21   EE      0
   10   14   SS    -11
   10   14   SE     -3
   10   14   ES      7
   10   14   EE     11
   10   15   SS      4
   10   15   SE      1
   10   15   ES    -12
   10   15   EE     -5
   10   19   SS      3
   10   19   SE     -8
   10   19   ES     -9
   10   19   EE     10
   11   14   SS     11
   11   14   SE      8
   11   14   ES      4
   11   14   EE      0
   11   18   SS    -11
   11   18   SE    -11
   11   18   ES     -6
   11   18   EE     -7
   11   21   SS    -11
   11   21   SE     10
   11   21   ES     -6
   11   21   EE     -9
   12   14   SS      7
   12   14   SE      2
   12   14   ES      5
   12   14   EE      6
   12   15   SS      7
   12   15   SE      7
   12   15   ES    -11
   12   15   EE    -10
   13   16   SS    -10
   13   16   SE     -4
   13   16   ES    -11
   13   16   EE    -12
   13   17   SS     -6
   13   17   SE     -3
   13   17   ES      3
   13   17   EE     -9
   14   16   SS     -5
   14   16   SE     -9
   14   16   ES     12
   14   16   EE     10
   15   16   SS      3
   15   16   SE     11
   15   16   ES     -9
   15   16   EE      6
   15   17   SS      2
   15   17   SE     12
   15   17   ES      8
   15   17   EE      5
   16   20   SS      1
   16   20   SE    -11
   16   20   ES     12
   16   20   EE     11
   17   20   SS     -9
   17   20   SE      8
   17   20   ES     12
   17   20   EE      0
   18   19   SS     -8
   18   19   SE     12
   18   19   ES     -1
   18   19   EE      9
************************************************************************
